\ENCODING=ISO-8859-1
\Problem name: IloCplex

Minimize
 obj: y
Subject To
 c1:  x1 + 27 r1 <= 29
 c2:  y1 - y <= -28
 c3:  x2 + 19 r2 <= 29
 c4:  - y + y2 <= -20
 c5:  x3 + 26 r3 <= 29
 c6:  - y + y3 <= -27
 c7:  x4 + 9 r4 <= 29
 c8:  - y + y4 <= -10
 c9:  x5 + 4 r5 <= 29
 c10: - y + y5 <= -5
 c11: x1 + 27 r1 - x2 - 30 p12 - 30 q12 <= -1
 c12: - 27 r1 + y1 - y2 - 30 p12 + 30 q12 <= 2
 c13: x1 - x2 - 19 r2 - 30 p12 + 30 q12 >= -29
 c14: y1 + 19 r2 - y2 - 30 p12 - 30 q12 >= -40
 c15: x1 + 27 r1 - x3 - 30 p13 - 30 q13 <= -1
 c16: - 27 r1 + y1 - y3 - 30 p13 + 30 q13 <= 2
 c17: x1 - x3 - 26 r3 - 30 p13 + 30 q13 >= -29
 c18: y1 + 26 r3 - y3 - 30 p13 - 30 q13 >= -33
 c19: x1 + 27 r1 - x4 - 30 p14 - 30 q14 <= -1
 c20: - 27 r1 + y1 - y4 - 30 p14 + 30 q14 <= 2
 c21: x1 - x4 - 9 r4 - 30 p14 + 30 q14 >= -29
 c22: y1 + 9 r4 - y4 - 30 p14 - 30 q14 >= -50
 c23: x1 + 27 r1 - x5 - 30 p15 - 30 q15 <= -1
 c24: - 27 r1 + y1 - y5 - 30 p15 + 30 q15 <= 2
 c25: x1 - x5 - 4 r5 - 30 p15 + 30 q15 >= -29
 c26: y1 + 4 r5 - y5 - 30 p15 - 30 q15 >= -55
 c27: x2 + 19 r2 - x3 - 30 p23 - 30 q23 <= -1
 c28: - 19 r2 + y2 - y3 - 30 p23 + 30 q23 <= 10
 c29: x2 - x3 - 26 r3 - 30 p23 + 30 q23 >= -29
 c30: y2 + 26 r3 - y3 - 30 p23 - 30 q23 >= -33
 c31: x2 + 19 r2 - x4 - 30 p24 - 30 q24 <= -1
 c32: - 19 r2 + y2 - y4 - 30 p24 + 30 q24 <= 10
 c33: x2 - x4 - 9 r4 - 30 p24 + 30 q24 >= -29
 c34: y2 + 9 r4 - y4 - 30 p24 - 30 q24 >= -50
 c35: x2 + 19 r2 - x5 - 30 p25 - 30 q25 <= -1
 c36: - 19 r2 + y2 - y5 - 30 p25 + 30 q25 <= 10
 c37: x2 - x5 - 4 r5 - 30 p25 + 30 q25 >= -29
 c38: y2 + 4 r5 - y5 - 30 p25 - 30 q25 >= -55
 c39: x3 + 26 r3 - x4 - 30 p34 - 30 q34 <= -1
 c40: - 26 r3 + y3 - y4 - 30 p34 + 30 q34 <= 3
 c41: x3 - x4 - 9 r4 - 30 p34 + 30 q34 >= -29
 c42: y3 + 9 r4 - y4 - 30 p34 - 30 q34 >= -50
 c43: x3 + 26 r3 - x5 - 30 p35 - 30 q35 <= -1
 c44: - 26 r3 + y3 - y5 - 30 p35 + 30 q35 <= 3
 c45: x3 - x5 - 4 r5 - 30 p35 + 30 q35 >= -29
 c46: y3 + 4 r5 - y5 - 30 p35 - 30 q35 >= -55
 c47: x4 + 9 r4 - x5 - 30 p45 - 30 q45 <= -1
 c48: - 9 r4 + y4 - y5 - 30 p45 + 30 q45 <= 20
 c49: x4 - x5 - 4 r5 - 30 p45 + 30 q45 >= -29
 c50: y4 + 4 r5 - y5 - 30 p45 - 30 q45 >= -55
Bounds
      x1 >= 0
 0 <= r1 <= 1
      y1 >= 0
      x2 >= 0
 0 <= r2 <= 1
      y2 >= 0
      x3 >= 0
 0 <= r3 <= 1
      y3 >= 0
      x4 >= 0
 0 <= r4 <= 1
      y4 >= 0
      x5 >= 0
 0 <= r5 <= 1
      y5 >= 0
 0 <= p12 <= 1
 0 <= q12 <= 1
 0 <= p13 <= 1
 0 <= q13 <= 1
 0 <= p14 <= 1
 0 <= q14 <= 1
 0 <= p15 <= 1
 0 <= q15 <= 1
 0 <= p23 <= 1
 0 <= q23 <= 1
 0 <= p24 <= 1
 0 <= q24 <= 1
 0 <= p25 <= 1
 0 <= q25 <= 1
 0 <= p34 <= 1
 0 <= q34 <= 1
 0 <= p35 <= 1
 0 <= q35 <= 1
 0 <= p45 <= 1
 0 <= q45 <= 1
Binaries
 r1  r2  r3  r4  r5  p12  q12  p13  q13  p14  q14  p15  q15  p23  q23  p24 
 q24  p25  q25  p34  q34  p35  q35  p45  q45 
Generals
 x1  y1  x2  y2  x3  y3  x4  y4  x5  y5 
End
